p cnf 13 21
13 12 -11 0
13 -12 -4 0
-13 -11 2 0
-13 9 -8 0
12 11 9 0
-12 -10 7 0
12 -10 -4 0
-12 9 -5 0
12 7 -2 0
12 3 1 0
11 9 -8 0
11 -9 7 0
11 6 1 0
-11 -3 -1 0
-10 -7 -2 0
10 4 -3 0
9 -5 3 0
-9 4 2 0
-9 -3 2 0
8 -6 -1 0
7 -4 3 0
